samples/Linear Programming/diet.lp
\ This file has been generated by DOcplex
\ ENCODING=ISO-8859-1
\Problem name: diet

Minimize
 obj: 0.840000000000 Roasted_Chicken + 0.780000000000 Spaghetti_W__Sauce
      + 0.270000000000 Tomato,Red,Ripe,Raw + 0.240000000000 Apple,Raw,W_Skin
      + 0.320000000000 Grapes + 0.030000000000 Chocolate_Chip_Cookies
      + 0.230000000000 Lowfat_Milk + 0.340000000000 Raisin_Brn
      + 0.310000000000 Hotdog
Subject To
 c1: 277.400000000000 Roasted_Chicken + 358.200000000000 Spaghetti_W__Sauce
     + 25.800000000000 Tomato,Red,Ripe,Raw + 81.400000000000 Apple,Raw,W_Skin
     + 15.100000000000 Grapes + 78.100000000000 Chocolate_Chip_Cookies
     + 121.200000000000 Lowfat_Milk + 115.100000000000 Raisin_Brn
     + 242.100000000000 Hotdog- Rgc1 = 2500
 c2: 21.900000000000 Roasted_Chicken + 80.200000000000 Spaghetti_W__Sauce
     + 6.200000000000 Tomato,Red,Ripe,Raw + 9.700000000000 Apple,Raw,W_Skin
     + 3.400000000000 Grapes + 6.200000000000 Chocolate_Chip_Cookies
     + 296.700000000000 Lowfat_Milk + 12.900000000000 Raisin_Brn
     + 23.500000000000 Hotdog- Rgc2 = 1600
 c3: 1.800000000000 Roasted_Chicken + 2.300000000000 Spaghetti_W__Sauce
     + 0.600000000000 Tomato,Red,Ripe,Raw + 0.200000000000 Apple,Raw,W_Skin
     + 0.100000000000 Grapes + 0.400000000000 Chocolate_Chip_Cookies
     + 0.100000000000 Lowfat_Milk + 16.800000000000 Raisin_Brn
     + 2.300000000000 Hotdog- Rgc3 = 30
 c4: 77.400000000000 Roasted_Chicken + 3055.200000000000 Spaghetti_W__Sauce
     + 766.300000000000 Tomato,Red,Ripe,Raw + 73.100000000000 Apple,Raw,W_Skin
     + 24 Grapes + 101.800000000000 Chocolate_Chip_Cookies
     + 500.200000000000 Lowfat_Milk + 1250.200000000000 Raisin_Brn- Rgc4 = 50000
 c5: 11.600000000000 Spaghetti_W__Sauce + 1.400000000000 Tomato,Red,Ripe,Raw
     + 3.700000000000 Apple,Raw,W_Skin + 0.200000000000 Grapes + 4 Raisin_Brn-
     Rgc5 = 100
 c6: 58.300000000000 Spaghetti_W__Sauce + 5.700000000000 Tomato,Red,Ripe,Raw
     + 21 Apple,Raw,W_Skin + 4.100000000000 Grapes
     + 9.300000000000 Chocolate_Chip_Cookies + 11.700000000000 Lowfat_Milk
     + 27.900000000000 Raisin_Brn + 18 Hotdog- Rgc6 = 300
 c7: 42.200000000000 Roasted_Chicken + 8.200000000000 Spaghetti_W__Sauce
     + Tomato,Red,Ripe,Raw + 0.300000000000 Apple,Raw,W_Skin
     + 0.200000000000 Grapes + 0.900000000000 Chocolate_Chip_Cookies
     + 8.100000000000 Lowfat_Milk + 4 Raisin_Brn + 10.400000000000 Hotdog- Rgc7
     = 100

Bounds
      Roasted_Chicken <= 10
      Spaghetti_W__Sauce <= 10
      Tomato,Red,Ripe,Raw <= 10
      Apple,Raw,W_Skin <= 10
      Grapes <= 10
      Chocolate_Chip_Cookies <= 10
      Lowfat_Milk <= 10
      Raisin_Brn <= 10
      Hotdog <= 10
-500 <= Rgc1 <= 0
-800 <= Rgc2 <= 0
-20 <= Rgc3 <= 0
-45000 <= Rgc4 <= 0
-75 <= Rgc5 <= 0
-300 <= Rgc6 <= 0
-50 <= Rgc7 <= 0
End